Welcome to the CBC MILP Solver 
Version: 2.10.12 
Build Date: Aug 20 2024 

command line - /opt/homebrew/bin/cbc computational_data/lp/Reg3_n20_s7.lp seconds 10.0 solve solu computational_data/solutions/Reg3_n20_s7.sol (default strategy 1)
seconds was changed from 1e+100 to 10
Continuous objective value is 8 - 0.00 seconds
Cgl0004I processed model has 122 rows, 40 columns (40 integer (40 of which binary)) and 400 elements
Cutoff increment increased from 1e-05 to 0.9999
Cbc0038I Initial state - 40 integers unsatisfied sum - 8
Cbc0038I Pass   1: suminf.    8.00904 (38) obj. 8.00904 iterations 3
Cbc0038I Pass   2: suminf.    9.33333 (28) obj. 14 iterations 50
Cbc0038I Pass   3: suminf.    0.00000 (0) obj. 16 iterations 23
Cbc0038I Solution found of 16
Cbc0038I Before mini branch and bound, 0 integers at bound fixed and 0 continuous
Cbc0038I Full problem 122 rows 40 columns, reduced to 122 rows 40 columns
Cbc0038I Mini branch and bound improved solution from 16 to 10 (0.02 seconds)
Cbc0038I Round again with cutoff of 8.90009
Cbc0038I Pass   4: suminf.    8.00904 (38) obj. 8.00904 iterations 0
Cbc0038I Pass   5: suminf.    6.16213 (22) obj. 8.90009 iterations 26
Cbc0038I Pass   6: suminf.    4.28282 (29) obj. 8.90009 iterations 17
Cbc0038I Pass   7: suminf.    4.19186 (21) obj. 8.90009 iterations 4
Cbc0038I Pass   8: suminf.    4.95005 (18) obj. 8.90009 iterations 41
Cbc0038I Pass   9: suminf.    3.82493 (19) obj. 8.90009 iterations 23
Cbc0038I Pass  10: suminf.    5.09991 (13) obj. 8.90009 iterations 33
Cbc0038I Pass  11: suminf.    5.09991 (13) obj. 8.90009 iterations 16
Cbc0038I Pass  12: suminf.    5.90009 (12) obj. 8.90009 iterations 22
Cbc0038I Pass  13: suminf.    5.50000 (11) obj. 8.5 iterations 14
Cbc0038I Pass  14: suminf.    4.83318 (12) obj. 8.90009 iterations 19
Cbc0038I Pass  15: suminf.    4.69982 (12) obj. 8.90009 iterations 9
Cbc0038I Pass  16: suminf.    4.69982 (12) obj. 8.90009 iterations 12
Cbc0038I Pass  17: suminf.    4.69982 (12) obj. 8.90009 iterations 19
Cbc0038I Pass  18: suminf.    3.49955 (12) obj. 8.90009 iterations 25
Cbc0038I Pass  19: suminf.    4.29973 (12) obj. 8.90009 iterations 32
Cbc0038I Pass  20: suminf.    4.29973 (12) obj. 8.90009 iterations 8
Cbc0038I Pass  21: suminf.    3.49955 (12) obj. 8.90009 iterations 23
Cbc0038I Pass  22: suminf.    3.49955 (12) obj. 8.90009 iterations 9
Cbc0038I Pass  23: suminf.    4.29973 (12) obj. 8.90009 iterations 26
Cbc0038I Pass  24: suminf.    7.09931 (25) obj. 8.90009 iterations 36
Cbc0038I Pass  25: suminf.    4.77984 (17) obj. 8.90009 iterations 30
Cbc0038I Pass  26: suminf.    3.49955 (12) obj. 8.90009 iterations 12
Cbc0038I Pass  27: suminf.    3.49955 (12) obj. 8.90009 iterations 18
Cbc0038I Pass  28: suminf.    4.83318 (12) obj. 8.90009 iterations 24
Cbc0038I Pass  29: suminf.    4.69982 (12) obj. 8.90009 iterations 17
Cbc0038I Pass  30: suminf.    4.69982 (12) obj. 8.90009 iterations 11
Cbc0038I Pass  31: suminf.    4.69982 (12) obj. 8.90009 iterations 28
Cbc0038I Pass  32: suminf.    3.49955 (12) obj. 8.90009 iterations 22
Cbc0038I Pass  33: suminf.    4.29973 (12) obj. 8.90009 iterations 30
Cbc0038I No solution found this major pass
Cbc0038I Before mini branch and bound, 0 integers at bound fixed and 0 continuous
Cbc0038I Full problem 122 rows 40 columns, reduced to 122 rows 40 columns
Cbc0038I Mini branch and bound did not improve solution (0.06 seconds)
Cbc0038I After 0.06 seconds - Feasibility pump exiting with objective of 10 - took 0.06 seconds
Cbc0012I Integer solution of 10 found by feasibility pump after 0 iterations and 0 nodes (0.06 seconds)
Cbc0031I 5 added rows had average density of 31
Cbc0013I At root node, 5 cuts changed objective from 8 to 9 in 100 passes
Cbc0014I Cut generator 0 (Probing) - 0 row cuts average 0.0 elements, 0 column cuts (0 active)  in 0.006 seconds - new frequency is -100
Cbc0014I Cut generator 1 (Gomory) - 1807 row cuts average 39.7 elements, 0 column cuts (0 active)  in 0.015 seconds - new frequency is 1
Cbc0014I Cut generator 2 (Knapsack) - 0 row cuts average 0.0 elements, 0 column cuts (0 active)  in 0.008 seconds - new frequency is -100
Cbc0014I Cut generator 3 (Clique) - 0 row cuts average 0.0 elements, 0 column cuts (0 active)  in 0.002 seconds - new frequency is -100
Cbc0014I Cut generator 4 (MixedIntegerRounding2) - 91 row cuts average 40.0 elements, 0 column cuts (0 active)  in 0.010 seconds - new frequency is -100
Cbc0014I Cut generator 5 (FlowCover) - 0 row cuts average 0.0 elements, 0 column cuts (0 active)  in 0.000 seconds - new frequency is -100
Cbc0010I After 0 nodes, 1 on tree, 10 best solution, best possible 9 (0.16 seconds)
Cbc0001I Search completed - best objective 10, took 3841 iterations and 8 nodes (0.19 seconds)
Cbc0032I Strong branching done 216 times (3679 iterations), fathomed 3 nodes and fixed 3 variables
Cbc0035I Maximum depth 2, 0 variables fixed on reduced cost
Cuts at root node changed objective from 8 to 9
Probing was tried 100 times and created 0 cuts of which 0 were active after adding rounds of cuts (0.006 seconds)
Gomory was tried 126 times and created 2053 cuts of which 0 were active after adding rounds of cuts (0.018 seconds)
Knapsack was tried 100 times and created 0 cuts of which 0 were active after adding rounds of cuts (0.008 seconds)
Clique was tried 100 times and created 0 cuts of which 0 were active after adding rounds of cuts (0.002 seconds)
MixedIntegerRounding2 was tried 100 times and created 91 cuts of which 0 were active after adding rounds of cuts (0.010 seconds)
FlowCover was tried 100 times and created 0 cuts of which 0 were active after adding rounds of cuts (0.000 seconds)
TwoMirCuts was tried 1 times and created 0 cuts of which 0 were active after adding rounds of cuts (0.000 seconds)
ZeroHalf was tried 1 times and created 0 cuts of which 0 were active after adding rounds of cuts (0.000 seconds)

Result - Optimal solution found

Objective value:                10.00000000
Enumerated nodes:               8
Total iterations:               3841
Time (CPU seconds):             0.19
Time (Wallclock seconds):       0.20

Total time (CPU seconds):       0.19   (Wallclock seconds):       0.20

